Version identifier: 12.10.0.0 | 2019-11-26 | 843d4de
CPXPARAM_WorkMem                                 28672
Tried aggregator 2 times.
Aggregator did 50 substitutions.
Reduced MIP has 163 rows, 180 columns, and 726 nonzeros.
Reduced MIP has 180 binaries, 0 generals, 0 SOSs, and 0 indicators.
Presolve time = 0,00 sec. (0,72 ticks)
Found incumbent of value 150,000000 after 0,00 sec. (1,16 ticks)
Probing time = 0,00 sec. (0,32 ticks)
Tried aggregator 1 time.
Detecting symmetries...
MIP Presolve eliminated 39 rows and 0 columns.
MIP Presolve added 78 rows and 0 columns.
Reduced MIP has 202 rows, 180 columns, and 765 nonzeros.
Reduced MIP has 180 binaries, 0 generals, 0 SOSs, and 0 indicators.
Presolve time = 0,00 sec. (1,01 ticks)
Probing time = 0,00 sec. (0,32 ticks)
Clique table members: 526.
MIP emphasis: balance optimality and feasibility.
MIP search method: dynamic search.
Parallel mode: deterministic, using up to 16 threads.
Root relaxation solution time = 0,00 sec. (0,79 ticks)

        Nodes                                         Cuts/
   Node  Left     Objective  IInf  Best Integer    Best Bound    ItCnt     Gap

*     0+    0                          150,0000        0,0000           100,00%
*     0+    0                          107,0000        0,0000           100,00%
      0     0       50,0000   180      107,0000       50,0000       79   53,27%
      0     0       52,2395   180      107,0000      Cuts: 16      101   51,18%
      0     0       53,8201   180      107,0000      Cuts: 19      125   49,70%
      0     0       54,0971   180      107,0000      Cuts: 86      148   49,44%
      0     0       54,1326   180      107,0000     Cuts: 150      153   49,41%
      0     0       54,3654   180      107,0000       Cuts: 7      182   49,19%
      0     0       64,5457   180      107,0000     Cuts: 150      317   39,68%
      0     0       64,7945   180      107,0000      Cuts: 76      347   39,44%
      0     0       65,0165   180      107,0000   ZeroHalf: 2      365   39,24%
      0     0       65,0752   180      107,0000       Cuts: 8      375   39,18%
      0     0       65,1418   180      107,0000       Cuts: 4      390   39,12%
      0     0       65,1966   180      107,0000       Cuts: 7      403   39,07%
      0     0       65,2156   180      107,0000      Cuts: 50      410   39,05%
      0     0       65,2650   180      107,0000   ZeroHalf: 6      415   39,00%
      0     0       65,2826   180      107,0000   ZeroHalf: 2      419   38,99%
      0     0       65,3135   180      107,0000       Cuts: 2      429   38,96%
      0     0       65,3566   180      107,0000       Cuts: 2      452   38,92%
      0     0       65,4365   180      107,0000       Cuts: 4      460   38,84%
      0     0       65,5555   180      107,0000       Cuts: 9      483   38,73%
      0     0       65,5967   180      107,0000      Cuts: 60      497   38,69%
      0     0       65,6166   180      107,0000   ZeroHalf: 2      513   38,68%
*     0+    0                          106,0000       65,6166            38,10%
      0     0        cutoff            106,0000      106,0000      513    0,00%
Elapsed time = 0,13 sec. (94,52 ticks, tree = 0,01 MB, solutions = 3)

Clique cuts applied:  45
Cover cuts applied:  57
Flow cuts applied:  14
Mixed integer rounding cuts applied:  69
Zero-half cuts applied:  19
Gomory fractional cuts applied:  9

Root node processing (before b&c):
  Real time             =    0,13 sec. (94,54 ticks)
Parallel b&c, 16 threads:
  Real time             =    0,00 sec. (0,00 ticks)
  Sync time (average)   =    0,00 sec.
  Wait time (average)   =    0,00 sec.
                          ------------
Total (root+branch&cut) =    0,13 sec. (94,54 ticks)
